fit noflag comp 
# Structure #0 | a = 2.130000 A  alp = 90.000000 deg.
vectors
  4.26000000 2.13000000 2.13000000
  2.13000000 4.26000000 2.13000000
  2.13000000 2.13000000 4.26000000
fractional
Mn1 core 0.00000000 0.00000000 0.00000000
O core 0.25000000 0.25000000 0.25000000
Mn2 core 0.50000000 0.50000000 0.50000000
O core 0.75000000 0.75000000 0.75000000
#
observable
energy eV
-0.271628 100.000000
end
# Structure #1 | a = 2.130000 A  alp = 90.150000 deg.
vectors
  4.25441271 2.12162637 2.12162637
  2.12162637 4.25441271 2.12162637
  2.12162637 2.12162637 4.25441271
fractional
Mn1 core 0.00000000 0.00000000 0.00000000
O core 0.25000000 0.25000000 0.25000000
Mn2 core 0.50000000 0.50000000 0.50000000
O core 0.75000000 0.75000000 0.75000000
#
observable
energy eV
-0.275144 100.000000
end
# Structure #2 | a = 2.130000 A  alp = 90.300000 deg.
vectors
  4.24880341 2.11323439 2.11323439
  2.11323439 4.24880341 2.11323439
  2.11323439 2.11323439 4.24880341
fractional
Mn1 core 0.00000000 0.00000000 0.00000000
O core 0.25000000 0.25000000 0.25000000
Mn2 core 0.50000000 0.50000000 0.50000000
O core 0.75000000 0.75000000 0.75000000
#
observable
energy eV
-0.278817 100.000000
end
# Structure #3 | a = 2.130000 A  alp = 90.450000 deg.
vectors
  4.24317200 2.10482395 2.10482395
  2.10482395 4.24317200 2.10482395
  2.10482395 2.10482395 4.24317200
fractional
Mn1 core 0.00000000 0.00000000 0.00000000
O core 0.25000000 0.25000000 0.25000000
Mn2 core 0.50000000 0.50000000 0.50000000
O core 0.75000000 0.75000000 0.75000000
#
observable
energy eV
-0.282566 100.000000
end
# Structure #4 | a = 2.130000 A  alp = 90.600000 deg.
vectors
  4.23751837 2.09639496 2.09639496
  2.09639496 4.23751837 2.09639496
  2.09639496 2.09639496 4.23751837
fractional
Mn1 core 0.00000000 0.00000000 0.00000000
O core 0.25000000 0.25000000 0.25000000
Mn2 core 0.50000000 0.50000000 0.50000000
O core 0.75000000 0.75000000 0.75000000
#
observable
energy eV
-0.286323 100.000000
end
# Structure #5 | a = 2.130000 A  alp = 90.750000 deg.
vectors
  4.23184241 2.08794731 2.08794731
  2.08794731 4.23184241 2.08794731
  2.08794731 2.08794731 4.23184241
fractional
Mn1 core 0.00000000 0.00000000 0.00000000
O core 0.25000000 0.25000000 0.25000000
Mn2 core 0.50000000 0.50000000 0.50000000
O core 0.75000000 0.75000000 0.75000000
#
observable
energy eV
-0.290107 100.000000
end
# Structure #6 | a = 2.130000 A  alp = 90.900000 deg.
vectors
  4.22614401 2.07948089 2.07948089
  2.07948089 4.22614401 2.07948089
  2.07948089 2.07948089 4.22614401
fractional
Mn1 core 0.00000000 0.00000000 0.00000000
O core 0.25000000 0.25000000 0.25000000
Mn2 core 0.50000000 0.50000000 0.50000000
O core 0.75000000 0.75000000 0.75000000
#
observable
energy eV
-0.293932 100.000000
end
# Structure #7 | a = 2.130000 A  alp = 91.050000 deg.
vectors
  4.22042305 2.07099559 2.07099559
  2.07099559 4.22042305 2.07099559
  2.07099559 2.07099559 4.22042305
fractional
Mn1 core 0.00000000 0.00000000 0.00000000
O core 0.25000000 0.25000000 0.25000000
Mn2 core 0.50000000 0.50000000 0.50000000
O core 0.75000000 0.75000000 0.75000000
#
observable
energy eV
-0.297853 100.000000
end
# Structure #8 | a = 2.130000 A  alp = 91.200000 deg.
vectors
  4.21467942 2.06249131 2.06249131
  2.06249131 4.21467942 2.06249131
  2.06249131 2.06249131 4.21467942
fractional
Mn1 core 0.00000000 0.00000000 0.00000000
O core 0.25000000 0.25000000 0.25000000
Mn2 core 0.50000000 0.50000000 0.50000000
O core 0.75000000 0.75000000 0.75000000
#
observable
energy eV
-0.301828 100.000000
end
# Structure #9 | a = 2.160000 A  alp = 90.000000 deg.
vectors
  4.32000000 2.16000000 2.16000000
  2.16000000 4.32000000 2.16000000
  2.16000000 2.16000000 4.32000000
fractional
Mn1 core 0.00000000 0.00000000 0.00000000
O core 0.25000000 0.25000000 0.25000000
Mn2 core 0.50000000 0.50000000 0.50000000
O core 0.75000000 0.75000000 0.75000000
#
observable
energy eV
-0.225480 100.000000
end
# Structure #10 | a = 2.160000 A  alp = 90.150000 deg.
vectors
  4.31433401 2.15150843 2.15150843
  2.15150843 4.31433401 2.15150843
  2.15150843 2.15150843 4.31433401
fractional
Mn1 core 0.00000000 0.00000000 0.00000000
O core 0.25000000 0.25000000 0.25000000
Mn2 core 0.50000000 0.50000000 0.50000000
O core 0.75000000 0.75000000 0.75000000
#
observable
energy eV
-0.228579 100.000000
end
# Structure #11 | a = 2.160000 A  alp = 90.300000 deg.
vectors
  4.30864571 2.14299825 2.14299825
  2.14299825 4.30864571 2.14299825
  2.14299825 2.14299825 4.30864571
fractional
Mn1 core 0.00000000 0.00000000 0.00000000
O core 0.25000000 0.25000000 0.25000000
Mn2 core 0.50000000 0.50000000 0.50000000
O core 0.75000000 0.75000000 0.75000000
#
observable
energy eV
-0.231685 100.000000
end
# Structure #12 | a = 2.160000 A  alp = 90.450000 deg.
vectors
  4.30293499 2.13446936 2.13446936
  2.13446936 4.30293499 2.13446936
  2.13446936 2.13446936 4.30293499
fractional
Mn1 core 0.00000000 0.00000000 0.00000000
O core 0.25000000 0.25000000 0.25000000
Mn2 core 0.50000000 0.50000000 0.50000000
O core 0.75000000 0.75000000 0.75000000
#
observable
energy eV
-0.234872 100.000000
end
# Structure #13 | a = 2.160000 A  alp = 90.600000 deg.
vectors
  4.29720173 2.12592165 2.12592165
  2.12592165 4.29720173 2.12592165
  2.12592165 2.12592165 4.29720173
fractional
Mn1 core 0.00000000 0.00000000 0.00000000
O core 0.25000000 0.25000000 0.25000000
Mn2 core 0.50000000 0.50000000 0.50000000
O core 0.75000000 0.75000000 0.75000000
#
observable
energy eV
-0.238111 100.000000
end
# Structure #14 | a = 2.160000 A  alp = 90.750000 deg.
vectors
  4.29144582 2.11735502 2.11735502
  2.11735502 4.29144582 2.11735502
  2.11735502 2.11735502 4.29144582
fractional
Mn1 core 0.00000000 0.00000000 0.00000000
O core 0.25000000 0.25000000 0.25000000
Mn2 core 0.50000000 0.50000000 0.50000000
O core 0.75000000 0.75000000 0.75000000
#
observable
energy eV
-0.241395 100.000000
end
# Structure #15 | a = 2.160000 A  alp = 90.900000 deg.
vectors
  4.28566716 2.10876935 2.10876935
  2.10876935 4.28566716 2.10876935
  2.10876935 2.10876935 4.28566716
fractional
Mn1 core 0.00000000 0.00000000 0.00000000
O core 0.25000000 0.25000000 0.25000000
Mn2 core 0.50000000 0.50000000 0.50000000
O core 0.75000000 0.75000000 0.75000000
#
observable
energy eV
-0.244637 100.000000
end
# Structure #16 | a = 2.160000 A  alp = 91.050000 deg.
vectors
  4.27986563 2.10016454 2.10016454
  2.10016454 4.27986563 2.10016454
  2.10016454 2.10016454 4.27986563
fractional
Mn1 core 0.00000000 0.00000000 0.00000000
O core 0.25000000 0.25000000 0.25000000
Mn2 core 0.50000000 0.50000000 0.50000000
O core 0.75000000 0.75000000 0.75000000
#
observable
energy eV
-0.248083 100.000000
end
# Structure #17 | a = 2.160000 A  alp = 91.200000 deg.
vectors
  4.27404110 2.09154048 2.09154048
  2.09154048 4.27404110 2.09154048
  2.09154048 2.09154048 4.27404110
fractional
Mn1 core 0.00000000 0.00000000 0.00000000
O core 0.25000000 0.25000000 0.25000000
Mn2 core 0.50000000 0.50000000 0.50000000
O core 0.75000000 0.75000000 0.75000000
#
observable
energy eV
-0.251622 100.000000
end
# Structure #18 | a = 2.190000 A  alp = 90.000000 deg.
vectors
  4.38000000 2.19000000 2.19000000
  2.19000000 4.38000000 2.19000000
  2.19000000 2.19000000 4.38000000
fractional
Mn1 core 0.00000000 0.00000000 0.00000000
O core 0.25000000 0.25000000 0.25000000
Mn2 core 0.50000000 0.50000000 0.50000000
O core 0.75000000 0.75000000 0.75000000
#
observable
energy eV
-0.186934 100.000000
end
# Structure #19 | a = 2.190000 A  alp = 90.150000 deg.
vectors
  4.37425532 2.18139049 2.18139049
  2.18139049 4.37425532 2.18139049
  2.18139049 2.18139049 4.37425532
fractional
Mn1 core 0.00000000 0.00000000 0.00000000
O core 0.25000000 0.25000000 0.25000000
Mn2 core 0.50000000 0.50000000 0.50000000
O core 0.75000000 0.75000000 0.75000000
#
observable
energy eV
-0.189600 100.000000
end
# Structure #20 | a = 2.190000 A  alp = 90.300000 deg.
vectors
  4.36848801 2.17276212 2.17276212
  2.17276212 4.36848801 2.17276212
  2.17276212 2.17276212 4.36848801
fractional
Mn1 core 0.00000000 0.00000000 0.00000000
O core 0.25000000 0.25000000 0.25000000
Mn2 core 0.50000000 0.50000000 0.50000000
O core 0.75000000 0.75000000 0.75000000
#
observable
energy eV
-0.192324 100.000000
end
# Structure #21 | a = 2.190000 A  alp = 90.450000 deg.
vectors
  4.36269797 2.16411477 2.16411477
  2.16411477 4.36269797 2.16411477
  2.16411477 2.16411477 4.36269797
fractional
Mn1 core 0.00000000 0.00000000 0.00000000
O core 0.25000000 0.25000000 0.25000000
Mn2 core 0.50000000 0.50000000 0.50000000
O core 0.75000000 0.75000000 0.75000000
#
observable
energy eV
-0.195099 100.000000
end
# Structure #22 | a = 2.190000 A  alp = 90.600000 deg.
vectors
  4.35688508 2.15544834 2.15544834
  2.15544834 4.35688508 2.15544834
  2.15544834 2.15544834 4.35688508
fractional
Mn1 core 0.00000000 0.00000000 0.00000000
O core 0.25000000 0.25000000 0.25000000
Mn2 core 0.50000000 0.50000000 0.50000000
O core 0.75000000 0.75000000 0.75000000
#
observable
energy eV
-0.197920 100.000000
end
# Structure #23 | a = 2.190000 A  alp = 90.750000 deg.
vectors
  4.35104924 2.14676273 2.14676273
  2.14676273 4.35104924 2.14676273
  2.14676273 2.14676273 4.35104924
fractional
Mn1 core 0.00000000 0.00000000 0.00000000
O core 0.25000000 0.25000000 0.25000000
Mn2 core 0.50000000 0.50000000 0.50000000
O core 0.75000000 0.75000000 0.75000000
#
observable
energy eV
-0.200777 100.000000
end
# Structure #24 | a = 2.190000 A  alp = 90.900000 deg.
vectors
  4.34519032 2.13805782 2.13805782
  2.13805782 4.34519032 2.13805782
  2.13805782 2.13805782 4.34519032
fractional
Mn1 core 0.00000000 0.00000000 0.00000000
O core 0.25000000 0.25000000 0.25000000
Mn2 core 0.50000000 0.50000000 0.50000000
O core 0.75000000 0.75000000 0.75000000
#
observable
energy eV
-0.203687 100.000000
end
# Structure #25 | a = 2.190000 A  alp = 91.050000 deg.
vectors
  4.33930820 2.12933350 2.12933350
  2.12933350 4.33930820 2.12933350
  2.12933350 2.12933350 4.33930820
fractional
Mn1 core 0.00000000 0.00000000 0.00000000
O core 0.25000000 0.25000000 0.25000000
Mn2 core 0.50000000 0.50000000 0.50000000
O core 0.75000000 0.75000000 0.75000000
#
observable
energy eV
-0.206645 100.000000
end
# Structure #26 | a = 2.190000 A  alp = 91.200000 deg.
vectors
  4.33340278 2.12058965 2.12058965
  2.12058965 4.33340278 2.12058965
  2.12058965 2.12058965 4.33340278
fractional
Mn1 core 0.00000000 0.00000000 0.00000000
O core 0.25000000 0.25000000 0.25000000
Mn2 core 0.50000000 0.50000000 0.50000000
O core 0.75000000 0.75000000 0.75000000
#
observable
energy eV
-0.209636 100.000000
end
# Structure #27 | a = 2.190000 A  alp = 91.350000 deg.
vectors
  4.32747393 2.11182617 2.11182617
  2.11182617 4.32747393 2.11182617
  2.11182617 2.11182617 4.32747393
fractional
Mn1 core 0.00000000 0.00000000 0.00000000
O core 0.25000000 0.25000000 0.25000000
Mn2 core 0.50000000 0.50000000 0.50000000
O core 0.75000000 0.75000000 0.75000000
#
observable
energy eV
-0.212770 100.000000
end
# Structure #28 | a = 2.190000 A  alp = 91.500000 deg.
vectors
  4.32152152 2.10304293 2.10304293
  2.10304293 4.32152152 2.10304293
  2.10304293 2.10304293 4.32152152
fractional
Mn1 core 0.00000000 0.00000000 0.00000000
O core 0.25000000 0.25000000 0.25000000
Mn2 core 0.50000000 0.50000000 0.50000000
O core 0.75000000 0.75000000 0.75000000
#
observable
energy eV
-0.215882 100.000000
end
# Structure #29 | a = 2.220000 A  alp = 90.000000 deg.
vectors
  4.44000000 2.22000000 2.22000000
  2.22000000 4.44000000 2.22000000
  2.22000000 2.22000000 4.44000000
fractional
Mn1 core 0.00000000 0.00000000 0.00000000
O core 0.25000000 0.25000000 0.25000000
Mn2 core 0.50000000 0.50000000 0.50000000
O core 0.75000000 0.75000000 0.75000000
#
observable
energy eV
-0.154291 100.000000
end
# Structure #30 | a = 2.220000 A  alp = 90.150000 deg.
vectors
  4.43417662 2.21127255 2.21127255
  2.21127255 4.43417662 2.21127255
  2.21127255 2.21127255 4.43417662
fractional
Mn1 core 0.00000000 0.00000000 0.00000000
O core 0.25000000 0.25000000 0.25000000
Mn2 core 0.50000000 0.50000000 0.50000000
O core 0.75000000 0.75000000 0.75000000
#
observable
energy eV
-0.156648 100.000000
end
# Structure #31 | a = 2.220000 A  alp = 90.300000 deg.
vectors
  4.42833031 2.20252598 2.20252598
  2.20252598 4.42833031 2.20252598
  2.20252598 2.20252598 4.42833031
fractional
Mn1 core 0.00000000 0.00000000 0.00000000
O core 0.25000000 0.25000000 0.25000000
Mn2 core 0.50000000 0.50000000 0.50000000
O core 0.75000000 0.75000000 0.75000000
#
observable
energy eV
-0.159099 100.000000
end
# Structure #32 | a = 2.220000 A  alp = 90.450000 deg.
vectors
  4.42246096 2.19376018 2.19376018
  2.19376018 4.42246096 2.19376018
  2.19376018 2.19376018 4.42246096
fractional
Mn1 core 0.00000000 0.00000000 0.00000000
O core 0.25000000 0.25000000 0.25000000
Mn2 core 0.50000000 0.50000000 0.50000000
O core 0.75000000 0.75000000 0.75000000
#
observable
energy eV
-0.161502 100.000000
end
# Structure #33 | a = 2.220000 A  alp = 90.600000 deg.
vectors
  4.41656844 2.18497503 2.18497503
  2.18497503 4.41656844 2.18497503
  2.18497503 2.18497503 4.41656844
fractional
Mn1 core 0.00000000 0.00000000 0.00000000
O core 0.25000000 0.25000000 0.25000000
Mn2 core 0.50000000 0.50000000 0.50000000
O core 0.75000000 0.75000000 0.75000000
#
observable
energy eV
-0.163946 100.000000
end
# Structure #34 | a = 2.220000 A  alp = 90.750000 deg.
vectors
  4.41065265 2.17617044 2.17617044
  2.17617044 4.41065265 2.17617044
  2.17617044 2.17617044 4.41065265
fractional
Mn1 core 0.00000000 0.00000000 0.00000000
O core 0.25000000 0.25000000 0.25000000
Mn2 core 0.50000000 0.50000000 0.50000000
O core 0.75000000 0.75000000 0.75000000
#
observable
energy eV
-0.166430 100.000000
end
# Structure #35 | a = 2.220000 A  alp = 90.900000 deg.
vectors
  4.40471347 2.16734628 2.16734628
  2.16734628 4.40471347 2.16734628
  2.16734628 2.16734628 4.40471347
fractional
Mn1 core 0.00000000 0.00000000 0.00000000
O core 0.25000000 0.25000000 0.25000000
Mn2 core 0.50000000 0.50000000 0.50000000
O core 0.75000000 0.75000000 0.75000000
#
observable
energy eV
-0.168959 100.000000
end
# Structure #36 | a = 2.220000 A  alp = 91.050000 deg.
vectors
  4.39875078 2.15850245 2.15850245
  2.15850245 4.39875078 2.15850245
  2.15850245 2.15850245 4.39875078
fractional
Mn1 core 0.00000000 0.00000000 0.00000000
O core 0.25000000 0.25000000 0.25000000
Mn2 core 0.50000000 0.50000000 0.50000000
O core 0.75000000 0.75000000 0.75000000
#
observable
energy eV
-0.171526 100.000000
end
# Structure #37 | a = 2.220000 A  alp = 91.200000 deg.
vectors
  4.39276446 2.14963883 2.14963883
  2.14963883 4.39276446 2.14963883
  2.14963883 2.14963883 4.39276446
fractional
Mn1 core 0.00000000 0.00000000 0.00000000
O core 0.25000000 0.25000000 0.25000000
Mn2 core 0.50000000 0.50000000 0.50000000
O core 0.75000000 0.75000000 0.75000000
#
observable
energy eV
-0.174136 100.000000
end
# Structure #38 | a = 2.250000 A  alp = 90.000000 deg.
vectors
  4.50000000 2.25000000 2.25000000
  2.25000000 4.50000000 2.25000000
  2.25000000 2.25000000 4.50000000
fractional
Mn1 core 0.00000000 0.00000000 0.00000000
O core 0.25000000 0.25000000 0.25000000
Mn2 core 0.50000000 0.50000000 0.50000000
O core 0.75000000 0.75000000 0.75000000
#
observable
energy eV
-0.127068 100.000000
end
# Structure #39 | a = 2.250000 A  alp = 90.150000 deg.
vectors
  4.49409793 2.24115461 2.24115461
  2.24115461 4.49409793 2.24115461
  2.24115461 2.24115461 4.49409793
fractional
Mn1 core 0.00000000 0.00000000 0.00000000
O core 0.25000000 0.25000000 0.25000000
Mn2 core 0.50000000 0.50000000 0.50000000
O core 0.75000000 0.75000000 0.75000000
#
observable
energy eV
-0.129118 100.000000
end
# Structure #40 | a = 2.250000 A  alp = 90.300000 deg.
vectors
  4.48817261 2.23228985 2.23228985
  2.23228985 4.48817261 2.23228985
  2.23228985 2.23228985 4.48817261
fractional
Mn1 core 0.00000000 0.00000000 0.00000000
O core 0.25000000 0.25000000 0.25000000
Mn2 core 0.50000000 0.50000000 0.50000000
O core 0.75000000 0.75000000 0.75000000
#
observable
energy eV
-0.131168 100.000000
end
# Structure #41 | a = 2.250000 A  alp = 90.450000 deg.
vectors
  4.48222394 2.22340559 2.22340559
  2.22340559 4.48222394 2.22340559
  2.22340559 2.22340559 4.48222394
fractional
Mn1 core 0.00000000 0.00000000 0.00000000
O core 0.25000000 0.25000000 0.25000000
Mn2 core 0.50000000 0.50000000 0.50000000
O core 0.75000000 0.75000000 0.75000000
#
observable
energy eV
-0.133258 100.000000
end
# Structure #42 | a = 2.250000 A  alp = 90.600000 deg.
vectors
  4.47625180 2.21450172 2.21450172
  2.21450172 4.47625180 2.21450172
  2.21450172 2.21450172 4.47625180
fractional
Mn1 core 0.00000000 0.00000000 0.00000000
O core 0.25000000 0.25000000 0.25000000
Mn2 core 0.50000000 0.50000000 0.50000000
O core 0.75000000 0.75000000 0.75000000
#
observable
energy eV
-0.135385 100.000000
end
# Structure #43 | a = 2.250000 A  alp = 90.750000 deg.
vectors
  4.47025607 2.20557815 2.20557815
  2.20557815 4.47025607 2.20557815
  2.20557815 2.20557815 4.47025607
fractional
Mn1 core 0.00000000 0.00000000 0.00000000
O core 0.25000000 0.25000000 0.25000000
Mn2 core 0.50000000 0.50000000 0.50000000
O core 0.75000000 0.75000000 0.75000000
#
observable
energy eV
-0.137574 100.000000
end
# Structure #44 | a = 2.250000 A  alp = 90.900000 deg.
vectors
  4.46423663 2.19663474 2.19663474
  2.19663474 4.46423663 2.19663474
  2.19663474 2.19663474 4.46423663
fractional
Mn1 core 0.00000000 0.00000000 0.00000000
O core 0.25000000 0.25000000 0.25000000
Mn2 core 0.50000000 0.50000000 0.50000000
O core 0.75000000 0.75000000 0.75000000
#
observable
energy eV
-0.139783 100.000000
end
# Structure #45 | a = 2.250000 A  alp = 91.050000 deg.
vectors
  4.45819336 2.18767140 2.18767140
  2.18767140 4.45819336 2.18767140
  2.18767140 2.18767140 4.45819336
fractional
Mn1 core 0.00000000 0.00000000 0.00000000
O core 0.25000000 0.25000000 0.25000000
Mn2 core 0.50000000 0.50000000 0.50000000
O core 0.75000000 0.75000000 0.75000000
#
observable
energy eV
-0.142062 100.000000
end
# Structure #46 | a = 2.250000 A  alp = 91.200000 deg.
vectors
  4.45212614 2.17868800 2.17868800
  2.17868800 4.45212614 2.17868800
  2.17868800 2.17868800 4.45212614
fractional
Mn1 core 0.00000000 0.00000000 0.00000000
O core 0.25000000 0.25000000 0.25000000
Mn2 core 0.50000000 0.50000000 0.50000000
O core 0.75000000 0.75000000 0.75000000
#
observable
energy eV
-0.144422 100.000000
end
species
Mn1     core   0.000000  0
Mn2     core   0.000000  0
O       core   0.000000  0
#buck     
#O     core Mn     core  959.38891     0.329281  0.000000      0.00 12.0 0 0 0
buck     
O     core O     core  22764.3000     0.149000  23.00000      0.00 12.0 0 0 0
buck
Mn    core Mn    core  25841.800     0.141817  0.0000000      0.00 12.0 0 0 0
three exponential       regular
O     cor Mn1   cor Mn2   cor       268.777       2.0000 0.285324 0.285 &
    0.000    2.500    0.000    2.500    0.000    5.000 0 1 0 1
buck
Mn1   core Mn2   core  -3384.60        0.252787   0.000000     0.00 12.00 0 0 0
